task              : geometryoptimization
do_properties     : T
geom_continuation : T

%block lattice_cart
ang
    87.6510  0.00000  0.0000
    0.00000 30.23030  0.0000
    0.00000  0.00000 14.3240
%endblock lattice_cart

%block species
Mo  Mo   42 -1 13.0
S   S    16 -1 13.0
%endblock species

%block species_pot
Mo  Mo.PBE-paw.abinit
S   S.PBE-paw.abinit
%endblock species_pot

%block positions_abs
ang
    S  0.000 0.000 0.000
    S  0.515 0.515 0.314
    Mo 1.340 1.340 1.340
%endblock positions_abs
