%BLOCK LATTICE_CART
ang    # angstrom units
  91.119728884583495   0.000000000000023   0.000000000000000
   0.000000000000000  16.439999999999998   0.000000000000000
   0.000000000000000   0.000000000000000  12.900000000000000
%ENDBLOCK LATTICE_CART

%BLOCK POSITIONS_ABS
ang    # angstrom units
Mo   0.949163842547745   1.644000000000001   3.225000000000000
S    1.898327685095489   0.000000000000000   1.586700000000000
Se  64.543141293246649   6.576000000000014   1.612500000000000
%ENDBLOCK POSITIONS_ABS
